c SAT Generator for power-law distributed variable frequencies
c -g u -v 20 -c 91 -k 3 -p 2.750000 -b 3.200000 -f /home/schmidt/Devel/ni-kop-sat/data/ensemble/ruf20-91/ruf20-91-181 -u 1 -U 1 -s 3270824763
p cnf 20 91
3 -13 -18 0
-3 -4 -6 0
-1 -10 -12 0
8 13 -18 0
-14 16 19 0
-3 7 13 0
1 11 -13 0
-9 -18 -20 0
4 -6 -17 0
5 7 17 0
3 15 -19 0
-2 -4 -9 0
13 14 -16 0
-1 -5 -17 0
-7 8 -10 0
1 2 -9 0
6 -7 -10 0
3 13 -19 0
-6 -12 18 0
-4 9 -10 0
-6 8 13 0
-2 7 -19 0
-11 13 -20 0
7 -18 20 0
6 8 -15 0
12 13 -20 0
-5 -15 -16 0
-4 -5 -20 0
4 -12 -14 0
-2 13 -16 0
8 10 17 0
7 -14 -16 0
-17 -18 -19 0
6 8 -14 0
-5 -14 -15 0
11 12 15 0
-7 10 19 0
7 19 -20 0
-3 4 5 0
-3 6 -20 0
-2 8 11 0
-1 -12 -17 0
1 -12 -17 0
-1 12 14 0
-8 9 -14 0
1 2 -17 0
2 -15 -17 0
2 -12 -13 0
6 7 11 0
-9 12 -20 0
-7 -12 -20 0
-6 17 20 0
6 -10 -18 0
-2 -3 -10 0
-1 4 -10 0
-3 5 -17 0
6 -15 -18 0
-6 18 -20 0
1 8 -18 0
-13 16 -19 0
4 12 -15 0
-9 -12 -18 0
-8 10 12 0
-3 -4 -17 0
-14 15 -18 0
15 -18 20 0
9 10 12 0
13 -16 18 0
2 3 8 0
2 -9 -18 0
-8 -14 -15 0
2 -5 -20 0
5 10 -11 0
-7 -8 -11 0
-3 9 11 0
-9 11 13 0
3 -10 -16 0
2 9 13 0
1 11 14 0
3 -9 14 0
5 9 -16 0
4 -8 10 0
5 -8 10 0
4 11 -18 0
10 -12 14 0
7 -11 19 0
17 18 19 0
-4 -6 14 0
-2 12 -20 0
-12 17 18 0
10 -14 -19 0
